481 5
10 10 10 10 10 

0 0 0 0 0 0 5 2 44 86 128 140 
0 0 0 0 0 0 2 3 5 
5 1 1 1 0 1 1 4 
2 2 2 2 0 3 2 7 6 
5 2 2 1 0 1 2 8 6 
3 4 3 1 0 2 4 18 11 10 9 
4 2 2 1 0 4 3 11 10 8 
1 2 2 2 0 2 2 9 449 
3 3 3 5 0 1 3 15 13 12 
1 2 2 3 0 1 3 21 15 14 
2 3 5 3 0 2 3 21 15 14 
3 3 4 3 0 2 2 21 14 
9 3 4 1 0 2 2 21 16 
8 2 4 3 0 3 1 16 
5 2 3 4 0 3 1 16 
2 3 5 4 0 2 2 23 17 
6 3 3 3 0 5 3 26 22 19 
9 2 2 3 0 5 2 21 20 
6 2 4 1 0 2 1 20 
5 3 3 4 0 3 3 29 27 24 
1 4 2 1 0 2 3 27 26 25 
6 3 1 6 0 1 3 33 29 24 
1 1 3 2 0 3 3 33 32 28 
1 5 5 2 0 1 1 25 
10 3 2 5 0 1 2 32 28 
7 3 1 2 0 5 2 30 29 
9 3 3 4 0 2 3 34 33 31 
6 2 1 2 0 3 2 35 30 
6 1 3 2 0 6 2 36 34 
3 1 3 2 0 3 1 31 
2 2 1 1 0 1 2 37 36 
3 5 2 1 0 1 1 34 
4 3 3 4 0 4 2 42 36 
9 1 1 2 0 1 1 35 
10 2 2 1 0 2 3 42 41 38 
7 4 1 4 0 3 2 41 38 
7 2 1 5 0 2 3 42 41 40 
5 2 4 3 0 2 1 39 
10 1 2 1 0 3 1 40 
10 3 2 2 0 1 1 43 
6 2 1 1 0 4 1 43 
10 3 2 2 0 5 1 43 
0 0 0 0 0 0 1 470 
0 0 0 0 0 0 2 45 49 
10 1 1 0 1 1 1 46 
7 3 5 0 3 4 2 48 47 
6 3 1 0 5 2 3 55 53 50 
1 2 3 0 2 1 3 67 53 51 
8 2 2 0 1 5 2 53 51 
2 3 2 0 1 2 1 51 
6 3 5 0 4 2 3 58 57 52 
8 3 3 0 3 1 2 66 54 
3 2 5 0 1 2 2 66 57 
10 3 2 0 6 1 1 56 
5 4 3 0 2 2 1 56 
2 3 2 0 3 1 3 69 65 59 
8 4 4 0 1 2 3 69 65 59 
4 1 4 0 2 2 6 72 69 65 62 61 250 
1 4 2 0 3 2 3 72 62 60 
1 2 1 0 2 2 1 61 
9 1 3 0 2 3 3 84 73 63 
4 2 1 0 3 3 2 73 63 
6 3 1 0 2 3 2 79 64 
10 2 3 0 1 2 3 83 77 68 
9 3 5 0 2 3 3 84 83 68 
5 1 2 0 3 4 2 74 69 
10 2 4 0 2 1 2 74 69 
4 2 1 0 2 4 1 70 
8 2 1 0 2 2 2 82 73 
7 1 4 0 2 3 1 71 
3 4 1 0 4 2 2 81 74 
1 5 3 0 4 3 2 81 74 
3 2 1 0 1 3 2 77 75 
6 2 2 0 3 1 2 82 76 
3 1 3 0 4 2 2 81 78 
10 4 3 0 4 3 1 78 
9 1 3 0 2 4 1 78 
9 3 2 0 5 5 1 80 
7 2 2 0 1 1 1 81 
3 6 2 0 1 3 1 85 
7 1 1 0 3 5 1 85 
1 1 2 0 1 1 1 85 
10 5 3 0 4 6 1 85 
5 1 2 0 2 1 1 85 
0 0 0 0 0 0 1 470 
0 0 0 0 0 0 2 87 90 
9 1 1 1 0 1 1 88 
4 3 2 2 0 1 2 91 89 
2 2 2 3 0 1 4 105 98 96 92 
5 4 2 4 0 2 3 105 96 93 
6 2 1 3 0 3 4 112 105 97 94 
1 4 2 3 0 3 1 93 
7 3 1 2 0 3 2 97 94 
4 1 1 2 0 4 2 107 95 
5 1 2 3 0 2 2 111 99 
9 3 7 7 0 2 1 97 
6 4 3 4 0 4 5 111 109 103 100 383 
8 1 3 2 0 2 5 116 111 109 103 101 
3 4 4 3 0 1 3 109 103 100 
5 3 2 4 0 4 2 116 101 
8 2 2 2 0 1 1 102 
6 1 4 2 0 3 4 126 121 114 104 
10 2 3 2 0 4 2 114 104 
3 1 4 3 0 3 2 125 106 
10 3 1 1 0 2 2 111 110 
8 2 2 1 0 3 2 119 108 
6 1 3 3 0 2 2 118 111 
10 2 3 3 0 1 1 110 
9 5 2 1 0 2 1 110 
4 2 2 3 0 2 1 113 
8 2 4 2 0 4 3 124 119 117 
5 3 3 1 0 2 3 124 119 117 
9 2 1 5 0 4 2 123 115 
7 4 3 2 0 3 2 119 117 
6 4 3 3 0 2 2 124 118 
9 1 1 1 0 5 1 118 
4 3 3 3 0 2 2 123 122 
7 1 6 2 0 3 1 120 
3 2 3 2 0 5 1 120 
10 4 1 2 0 1 1 122 
7 2 2 2 0 2 1 123 
8 3 3 2 0 4 1 127 
8 4 2 1 0 2 1 127 
4 1 2 3 0 1 1 127 
8 5 2 2 0 3 1 127 
8 2 2 3 0 1 1 127 
0 0 0 0 0 0 1 470 
0 0 0 0 0 0 3 129 130 132 
1 0 1 0 0 0 2 133 131 
6 0 4 0 0 0 2 133 131 
5 0 3 0 0 0 2 135 134 
3 0 2 0 0 0 2 137 135 
4 0 4 0 0 0 2 134 376 
10 0 1 0 0 0 2 137 136 
6 0 2 0 0 0 1 136 
5 0 2 0 0 0 1 138 
5 0 3 0 0 0 1 138 
5 0 3 0 0 0 1 139 
0 0 0 0 0 0 5 182 194 226 258 290 
0 0 0 0 0 0 2 141 143 
6 1 1 0 1 1 1 142 
7 3 3 0 4 4 2 145 144 
1 1 3 0 3 2 2 146 144 
7 1 2 0 2 1 4 156 149 148 147 
1 3 1 0 4 4 3 149 148 146 
10 1 2 0 1 2 1 147 
9 1 1 0 5 1 3 153 151 150 
5 5 3 0 2 2 3 159 153 152 
4 3 6 0 2 2 3 159 153 152 
8 2 1 0 2 2 2 159 152 
7 1 3 0 6 2 2 159 154 
2 2 1 0 1 2 1 154 
3 1 1 0 1 3 1 154 
7 2 1 0 2 2 2 161 155 
3 1 6 0 3 2 3 164 160 157 
4 4 4 0 2 4 2 159 158 
8 3 2 0 2 2 1 158 
5 4 2 0 2 2 3 168 165 162 
5 1 4 0 4 2 3 165 164 163 
2 2 2 0 2 5 3 171 168 162 
10 6 2 0 5 4 3 171 170 166 
7 4 1 0 2 6 1 163 
3 2 3 0 2 3 2 170 166 
7 2 2 0 1 1 2 168 167 
1 3 2 0 4 2 3 172 171 169 
4 2 2 0 1 3 1 167 
7 1 6 0 1 1 2 173 169 
9 3 4 0 2 1 2 174 172 
8 1 4 0 1 3 2 175 174 
1 3 2 0 1 2 1 172 
3 4 2 0 2 2 2 180 174 
8 4 2 0 3 3 1 173 
7 3 4 0 2 3 3 180 179 176 
6 4 2 0 1 2 2 179 176 
5 3 2 0 3 2 3 180 179 178 
4 4 1 0 4 1 1 177 
1 2 2 0 2 3 1 178 
3 2 2 0 2 5 1 181 
9 2 5 0 4 3 2 181 206 
5 3 1 0 6 3 1 181 
0 0 0 0 0 0 1 470 
0 0 0 0 0 0 1 183 
3 0 0 0 1 0 2 192 184 
10 0 0 0 2 0 3 191 186 185 
3 0 0 0 3 0 4 190 189 187 325 
1 0 0 0 1 0 2 189 188 
6 0 0 0 3 0 1 188 
3 0 0 0 4 0 1 193 
5 0 0 0 2 0 1 193 
8 0 0 0 2 0 1 193 
3 0 0 0 4 0 1 193 
10 0 0 0 3 0 1 193 
0 0 0 0 0 0 5 322 344 366 378 400 
0 0 0 0 0 0 3 195 196 224 
4 1 1 0 1 0 2 223 197 
9 2 2 0 2 0 2 223 197 
10 6 1 0 4 0 2 201 198 
5 3 4 0 1 0 2 205 199 
5 3 3 0 2 0 2 222 200 
8 3 2 0 3 0 3 212 202 279 
4 2 2 0 4 0 2 205 203 
9 2 3 0 2 0 1 203 
10 2 3 0 6 0 3 216 208 204 
7 3 1 0 2 0 2 213 206 
10 2 1 0 3 0 2 216 206 
6 3 3 0 1 0 1 207 
2 1 3 0 2 0 2 221 209 
1 2 3 0 3 0 2 221 210 
10 2 4 0 2 0 1 210 
2 2 5 0 3 0 3 219 215 211 
7 3 2 0 2 0 3 220 218 214 
10 3 2 0 1 0 3 219 218 214 
10 3 1 0 3 0 1 214 
7 4 1 0 2 0 1 217 
2 3 2 0 4 0 1 218 
3 4 5 0 2 0 1 221 
8 2 3 0 5 0 1 225 
1 1 4 0 2 0 1 225 
6 3 3 0 1 0 1 225 
10 2 2 0 3 0 1 225 
4 1 3 0 2 0 1 225 
5 1 2 0 3 0 1 225 
4 2 2 0 2 0 1 225 
1 4 2 0 2 0 1 225 
0 0 0 0 0 0 1 470 
0 0 0 0 0 0 3 227 228 256 
4 0 1 0 1 1 2 255 229 
3 0 1 0 2 2 2 255 229 
4 0 3 0 1 2 3 235 230 388 
2 0 1 0 2 2 2 239 231 
9 0 3 0 3 2 3 254 248 232 
9 0 2 0 7 2 1 233 
8 0 4 0 1 1 2 242 234 
5 0 1 0 5 2 2 246 236 
6 0 6 0 2 2 3 246 239 237 
5 0 2 0 5 1 2 247 237 
5 0 2 0 4 1 1 238 
2 0 2 0 3 4 2 253 240 
7 0 2 0 3 4 1 240 
5 0 2 0 1 5 1 241 
8 0 1 0 5 3 3 252 245 243 
8 0 2 0 3 2 4 252 251 250 244 
3 0 3 0 2 2 3 251 250 244 
3 0 2 0 1 3 1 249 
8 0 5 0 1 2 1 250 
4 0 5 0 1 2 1 253 
9 0 2 0 1 4 1 249 
8 0 3 0 2 1 1 249 
9 0 3 0 4 7 1 257 
3 0 3 0 3 3 1 257 
9 0 1 0 2 4 1 257 
6 0 4 0 1 1 1 257 
10 0 1 0 2 2 1 257 
2 0 2 0 1 1 1 257 
5 0 3 0 3 3 1 257 
10 0 3 0 3 4 1 257 
0 0 0 0 0 0 1 470 
0 0 0 0 0 0 3 259 260 265 
3 0 1 1 1 0 2 270 261 
4 0 1 4 3 0 2 270 261 
7 0 4 3 2 0 3 266 262 375 
5 0 1 3 2 0 2 268 263 
3 0 4 3 3 0 1 264 
6 0 4 5 2 0 3 274 273 267 
10 0 2 4 2 0 2 270 269 
3 0 1 2 4 0 1 268 
9 0 1 3 3 0 1 269 
1 0 6 1 4 0 1 269 
9 0 1 2 3 0 3 280 277 271 
5 0 1 1 5 0 3 280 273 271 
7 0 2 4 3 0 1 272 
3 0 1 2 2 0 2 281 275 
1 0 4 2 2 0 1 275 
4 0 2 2 6 0 1 275 
3 0 4 5 3 0 1 276 
6 0 3 2 3 0 1 278 
5 0 4 1 1 0 1 278 
9 0 1 2 1 0 3 287 283 279 
5 0 2 2 2 0 4 288 286 284 282 
9 0 3 4 2 0 4 287 286 284 282 
10 0 4 1 4 0 2 284 282 
9 0 2 4 2 0 1 285 
9 0 2 1 3 0 1 284 
10 0 3 2 2 0 1 289 
1 0 3 3 2 0 1 289 
2 0 3 2 1 0 1 289 
8 0 3 1 1 0 1 289 
8 0 2 3 1 0 1 289 
0 0 0 0 0 0 1 470 
0 0 0 0 0 0 3 291 292 305 
4 0 1 0 1 1 2 310 293 
7 0 4 0 2 2 2 310 293 
1 0 2 0 2 3 2 297 294 
3 0 4 0 2 2 2 300 295 
9 0 3 0 1 5 2 315 296 
6 0 3 0 3 1 2 308 298 
4 0 1 0 3 4 2 300 299 
4 0 3 0 3 2 1 299 
3 0 2 0 4 3 3 314 304 301 
5 0 4 0 3 4 3 314 311 302 
2 0 3 0 6 1 3 311 302 332 
2 0 3 0 2 1 1 303 
1 0 4 0 2 1 2 320 306 
3 0 4 0 2 3 2 320 307 
8 0 1 0 2 3 4 320 319 313 309 
6 0 2 0 3 1 1 307 
1 0 2 0 1 5 3 319 313 309 
7 0 1 0 4 2 2 319 309 
1 0 2 0 2 1 3 318 316 312 
3 0 3 0 3 4 2 317 316 
2 0 2 0 2 1 1 312 
4 0 1 0 1 2 1 317 
2 0 3 0 4 1 1 316 
5 0 4 0 2 2 1 320 
7 0 3 0 3 3 1 316 
5 0 2 0 3 5 1 321 
7 0 2 0 2 2 1 321 
3 0 2 0 1 2 1 321 
9 0 2 0 1 5 1 321 
4 0 2 0 5 3 1 321 
0 0 0 0 0 0 1 470 
0 0 0 0 0 0 1 323 
1 0 1 0 0 1 1 324 
6 0 1 0 0 3 2 326 325 
4 0 3 0 0 3 1 327 
1 0 3 0 0 1 1 327 
7 0 2 0 0 2 1 328 
4 0 2 0 0 2 2 330 329 
1 0 5 0 0 2 2 333 331 
5 0 3 0 0 3 1 331 
5 0 4 0 0 1 4 336 335 334 332 
2 0 2 0 0 2 5 342 341 339 338 337 
10 0 1 0 0 4 5 342 341 339 338 337 
10 0 4 0 0 4 4 342 341 338 337 
10 0 1 0 0 2 4 341 339 338 337 
3 0 2 0 0 3 2 342 341 
8 0 2 0 0 2 2 340 392 
8 0 5 0 0 1 1 340 
6 0 1 0 0 6 1 340 
3 0 2 0 0 2 1 343 
2 0 3 0 0 4 1 343 
5 0 3 0 0 2 1 343 
0 0 0 0 0 0 1 470 
0 0 0 0 0 0 3 345 347 348 
7 1 0 1 0 0 3 358 354 346 
1 2 0 8 0 0 3 359 349 410 
9 2 0 2 0 0 4 358 354 353 351 
3 3 0 3 0 0 4 358 354 353 352 
8 3 0 4 0 0 2 353 350 
10 1 0 2 0 0 1 351 
1 2 0 1 0 0 1 352 
6 1 0 2 0 0 4 362 361 357 355 
6 4 0 1 0 0 2 361 355 
6 2 0 1 0 0 2 361 357 
1 2 0 4 0 0 1 356 
10 2 0 1 0 0 1 360 
7 3 0 5 0 0 1 360 
1 4 0 5 0 0 1 362 
2 4 0 2 0 0 1 362 
5 5 0 1 0 0 1 363 
3 3 0 2 0 0 1 364 
4 4 0 2 0 0 1 363 
5 1 0 1 0 0 1 365 
1 1 0 2 0 0 1 365 
0 0 0 0 0 0 1 470 
0 0 0 0 0 0 2 367 436 
1 1 0 0 0 0 2 369 368 
7 5 0 0 0 0 2 371 370 
7 3 0 0 0 0 2 371 370 
9 2 0 0 0 0 3 376 374 372 
2 1 0 0 0 0 2 373 372 
4 3 0 0 0 0 1 375 
9 1 0 0 0 0 1 375 
9 2 0 0 0 0 1 375 
3 2 0 0 0 0 1 377 
7 5 0 0 0 0 1 377 
0 0 0 0 0 0 4 422 434 446 458 
0 0 0 0 0 0 4 379 382 386 398 
7 0 0 1 1 0 2 389 380 
2 0 0 2 6 0 2 397 381 
1 0 0 2 2 0 4 396 392 388 383 
5 0 0 1 2 0 4 396 392 390 389 
4 0 0 3 2 0 2 395 384 
9 0 0 1 3 0 1 385 
2 0 0 2 2 0 2 394 387 
1 0 0 3 5 0 2 395 390 
5 0 0 3 2 0 1 390 
5 0 0 4 2 0 1 390 
10 0 0 2 1 0 2 395 393 
1 0 0 2 1 0 1 391 
6 0 0 2 1 0 1 393 
8 0 0 2 3 0 1 394 
3 0 0 2 6 0 1 399 
10 0 0 5 3 0 1 399 
2 0 0 6 3 0 2 399 441 
2 0 0 2 1 0 1 399 
10 0 0 2 1 0 1 399 
2 0 0 3 3 0 1 399 
0 0 0 0 0 0 1 470 
0 0 0 0 0 0 2 401 402 
9 0 0 0 1 1 2 407 403 
1 0 0 0 3 1 3 415 406 404 
8 0 0 0 2 1 2 415 405 
5 0 0 0 3 1 3 410 408 407 
8 0 0 0 1 3 2 410 406 
4 0 0 0 4 3 2 408 443 
10 0 0 0 2 4 4 418 414 413 411 
9 0 0 0 4 4 1 409 
8 0 0 0 1 3 4 418 417 413 411 
9 0 0 0 3 4 4 418 417 413 411 
3 0 0 0 1 3 1 412 
2 0 0 0 3 3 1 416 
9 0 0 0 3 3 1 416 
2 0 0 0 2 4 1 417 
4 0 0 0 4 1 1 417 
3 0 0 0 2 3 1 419 
3 0 0 0 4 1 1 419 
6 0 0 0 4 2 1 420 
7 0 0 0 1 3 1 421 
4 0 0 0 2 2 1 421 
0 0 0 0 0 0 1 470 
0 0 0 0 0 0 5 423 425 427 428 464 
6 1 0 0 0 0 1 424 
3 1 0 0 0 0 2 430 426 
4 3 0 0 0 0 2 430 429 
10 3 0 0 0 0 2 432 429 
10 3 0 0 0 0 2 432 431 
9 3 0 0 0 0 1 429 
6 2 0 0 0 0 1 431 
4 4 0 0 0 0 1 432 
1 2 0 0 0 0 1 433 
2 3 0 0 0 0 1 433 
0 0 0 0 0 0 1 470 
0 0 0 0 0 0 3 435 438 444 
10 0 0 0 1 0 1 436 
2 0 0 0 3 0 2 440 437 
7 0 0 0 2 0 2 443 439 
1 0 0 0 2 0 1 441 
8 0 0 0 4 0 1 442 
4 0 0 0 3 0 1 442 
10 0 0 0 3 0 1 442 
4 0 0 0 1 0 1 445 
3 0 0 0 4 0 2 445 449 
9 0 0 0 2 0 1 445 
0 0 0 0 0 0 1 470 
0 0 0 0 0 0 3 447 448 449 
10 0 0 0 1 0 3 454 451 450 
10 0 0 0 2 0 4 454 451 450 464 
4 0 0 0 3 0 3 456 454 451 
5 0 0 0 3 0 2 456 452 
10 0 0 0 3 0 1 452 
7 0 0 0 2 0 1 453 
4 0 0 0 4 0 1 455 
8 0 0 0 3 0 1 455 
2 0 0 0 2 0 1 457 
6 0 0 0 2 0 1 457 
0 0 0 0 0 0 1 470 
0 0 0 0 0 0 4 459 461 462 465 
10 0 0 0 1 0 1 460 
3 0 0 0 2 0 3 468 467 463 
7 0 0 0 3 0 3 468 467 463 
8 0 0 0 4 0 3 468 467 463 
10 0 0 0 1 0 1 464 
3 0 0 0 5 0 1 466 
1 0 0 0 1 0 1 467 
10 0 0 0 4 0 1 469 
4 0 0 0 3 0 1 469 
10 0 0 0 1 0 1 469 
0 0 0 0 0 0 1 470 
0 0 0 0 0 0 4 471 472 479 480 
7 0 0 0 0 1 2 478 473 
9 0 0 0 0 4 2 477 475 
3 0 0 0 0 1 1 474 
3 0 0 0 0 5 1 475 
10 0 0 0 0 4 1 476 
7 0 0 0 0 2 1 481 
8 0 0 0 0 2 1 481 
5 0 0 0 0 2 1 481 
7 0 0 0 0 2 1 481 
1 0 0 0 0 2 1 481 
0 0 0 0 0 0 0 
